155
0 15 46 58 62 72 98 86 111 38 
117 6 128 108 95 59 99 135 29 53 
121 83 122 84 131 92 120 112 16 36 
41 39 65 44 82 129 105 151 21 144 
154 54 148 67 49 133 74 33 125 20 
51 64 146 55 113 103 124 13 110 119 
115 23 50 80 87 22 149 127 109 19 
47 96 152 73 34 107 153 106 25 85 
145 147 68 2 141 18 71 10 143 137 
66 11 32 12 79 27 26 28 75 70 
63 93 116 4 60 61 48 100 138 81 
139 140 123 114 77 69 43 90 17 52 
30 35 88 1 45 97 89 101 102 14 
57 24 3 91 132 94 136 31 126 40 
142 56 5 42 9 8 118 104 7 130 
134 78 150 37 76 
